* Problem:    Subset Sum: B - small
* Class:      MIP
* Rows:       1
* Columns:    10 (10 integer, 10 binary)
* Non-zeros:  10
* Format:     Fixed MPS
*
NAME
ROWS
 N  R0000000
 E  r.5
COLUMNS
    M0000001  'MARKER'                 'INTORG'
    x0        R0000000            -4   r.5                  4
    x1        R0000000           -14   r.5                 14
    x2        R0000000           -15   r.5                 15
    x3        R0000000           -18   r.5                 18
    x4        R0000000           -29   r.5                 29
    x5        R0000000           -32   r.5                 32
    x6        R0000000           -36   r.5                 36
    x7        R0000000           -82   r.5                 82
    x8        R0000000           -95   r.5                 95
    x9        R0000000           -95   r.5                 95
    M0000002  'MARKER'                 'INTEND'
RHS
    RHS1      r.5                100
BOUNDS
 UP BND1      x0                   1
 UP BND1      x1                   1
 UP BND1      x2                   1
 UP BND1      x3                   1
 UP BND1      x4                   1
 UP BND1      x5                   1
 UP BND1      x6                   1
 UP BND1      x7                   1
 UP BND1      x8                   1
 UP BND1      x9                   1
ENDATA
